<number of tasks>
32

<cycle time>
1572

<task times>
1 458
2 276
3 520
4 1400
5 352
6 196
7 214
8 456
9 646
10 512
11 408
12 262
13 544
14 202
15 458
16 694
17 616
18 678
19 328
20 324
21 100
22 352
23 544
24 500
25 382
26 858
27 388
28 352
29 428
30 238
31 258
32 196

<precedence relations>
1,5
2,6
3,9
4,15
5,6
6,7
6,8
6,9
7,21
8,21
9,10
9,11
10,16
11,12
12,13
13,14
13,15
14,16
14,17
15,17
16,18
17,19
18,21
19,20
20,21
21,22
21,23
21,24
22,25
23,32
24,32
25,26
26,27
27,28
28,29
29,30
30,31
31,32

<setup times forward>
1,2:247
1,4:178
2,1:247
2,3:247
2,4:69
2,5:247
3,2:247
3,4:178
3,6:247
3,7:279
3,8:187
3,9:247
4,1:178
4,2:69
4,3:178
4,5:178
4,6:69
4,7:101
4,8:9
4,9:69
4,10:61
4,11:69
4,12:61
4,13:61
4,14:42
4,15:42
4,16:42
4,18:101
5,2:247
5,4:178
5,6:247
6,3:247
6,4:69
6,7:32
6,8:60
7,3:279
7,4:101
7,8:92
7,9:32
7,10:162
7,11:32
7,12:162
7,13:162
7,14:143
7,15:143
7,16:143
7,19:92
7,20:92
7,21:92
8,3:187
8,4:9
8,7:92
8,9:60
8,10:70
8,11:60
8,12:70
8,13:70
8,14:51
8,15:51
8,16:51
8,17:92
8,18:92
9,4:69
9,7:32
9,8:60
9,10:130
10,4:61
10,7:162
10,8:70
10,11:130
10,14:19
10,15:19
10,16:19
10,17:162
10,19:70
10,20:70
11,4:69
11,7:32
11,8:60
11,10:130
11,12:130
12,4:61
12,7:162
12,8:70
13,4:61
13,7:162
13,8:70
13,14:19
13,15:19
14,4:42
14,7:143
14,8:51
14,10:19
14,17:143
15,7:143
15,8:51
15,10:19
15,17:143
15,18:143
16,4:42
16,7:143
16,8:51
16,17:143
16,18:143
16,19:51
16,20:51
17,8:92
17,10:162
17,16:143
17,19:92
18,4:101
18,8:92
18,15:143
18,19:92
18,20:92
18,21:92
19,7:92
19,10:70
19,16:51
19,18:92
20,7:92
20,10:70
20,16:51
20,18:92
21,23:148
21,24:148
22,23:148
22,24:148
22,25:148
23,22:148
23,26:251
23,27:251
23,28:90
23,29:90
23,30:90
23,31:90
23,32:90
24,22:148
24,26:251
24,27:251
24,28:90
24,29:90
24,30:90
24,31:90
24,32:90
25,26:251
26,23:251
26,24:251
27,23:251
27,24:251
27,28:161
28,23:90
28,24:90
29,23:90
29,24:90
30,23:90
30,24:90
31,23:90
31,24:90

<setup times backward>
1,1:12
1,2:259
1,3:12
1,4:190
2,2:12
3,1:12
3,2:259
3,3:12
3,4:190
3,5:12
3,6:259
3,7:291
3,8:199
4,2:81
4,4:12
4,6:81
4,7:113
4,8:21
4,9:81
4,11:81
4,18:113
5,1:12
5,2:259
5,3:12
5,4:190
5,5:12
6,2:12
6,6:12
7,7:12
7,17:12
7,18:12
8,2:72
8,4:3
8,6:72
8,7:104
8,8:12
8,9:72
8,11:72
8,17:104
8,18:104
8,19:12
8,20:12
9,2:12
9,6:12
9,7:44
9,9:12
10,2:142
10,4:73
10,6:142
10,7:174
10,8:82
10,9:142
10,10:12
10,11:142
10,12:12
10,13:12
10,14:31
10,15:31
10,17:174
10,19:82
10,20:82
11,2:12
11,6:12
11,7:44
11,9:12
11,11:12
12,2:142
12,4:73
12,6:142
12,7:174
12,8:82
12,9:142
12,10:12
12,11:142
12,12:12
13,2:142
13,4:73
13,6:142
13,7:174
13,8:82
13,9:142
13,10:12
13,11:142
13,12:12
13,13:12
14,2:123
14,4:54
14,6:123
14,7:155
14,8:63
14,9:123
14,11:123
14,14:12
14,15:12
15,2:123
15,4:54
15,6:123
15,7:155
15,8:63
15,9:123
15,11:123
15,14:12
15,15:12
15,16:12
15,18:155
16,2:123
16,4:54
16,6:123
16,7:155
16,8:63
16,9:123
16,11:123
16,14:12
16,15:12
16,16:12
16,17:155
16,19:63
16,20:63
17,7:12
17,17:12
17,18:12
18,7:12
18,17:12
18,18:12
19,2:72
19,4:3
19,6:72
19,7:104
19,8:12
19,9:72
19,11:72
19,17:104
19,18:104
19,19:12
20,2:72
20,4:3
20,6:72
20,7:104
20,8:12
20,9:72
20,11:72
20,17:104
20,18:104
20,19:12
20,20:12
21,2:72
21,4:3
21,6:72
21,7:104
21,8:12
21,9:72
21,11:72
21,17:104
21,18:104
21,19:12
21,20:12
21,21:12
22,2:72
22,4:3
22,6:72
22,7:104
22,8:12
22,9:72
22,11:72
22,17:104
22,18:104
22,19:12
22,20:12
22,21:12
22,22:12
22,23:160
22,24:160
23,23:12
23,24:12
23,25:12
24,23:12
24,24:12
24,25:12
25,23:12
25,24:12
25,25:12
26,2:175
26,4:106
26,6:175
26,7:207
26,8:115
26,9:175
26,10:45
26,11:175
26,12:45
26,13:45
26,14:64
26,15:64
26,16:64
26,17:207
26,18:207
26,19:115
26,20:115
26,21:115
26,22:115
26,23:263
26,24:263
26,25:263
26,26:12
27,2:175
27,4:106
27,6:175
27,7:207
27,8:115
27,9:175
27,10:45
27,11:175
27,12:45
27,13:45
27,14:64
27,15:64
27,16:64
27,17:207
27,18:207
27,19:115
27,20:115
27,21:115
27,22:115
27,23:263
27,24:263
27,25:263
27,26:12
27,27:12
28,2:14
28,6:14
28,7:46
28,9:14
28,11:14
28,17:46
28,18:46
28,23:102
28,24:102
28,25:102
28,28:12
29,2:14
29,6:14
29,7:46
29,9:14
29,11:14
29,17:46
29,18:46
29,23:102
29,24:102
29,25:102
29,28:12
29,29:12
30,2:14
30,6:14
30,7:46
30,9:14
30,11:14
30,17:46
30,18:46
30,23:102
30,24:102
30,25:102
30,28:12
30,29:12
30,30:12
31,2:14
31,6:14
31,7:46
31,9:14
31,11:14
31,17:46
31,18:46
31,23:102
31,24:102
31,25:102
31,28:12
31,29:12
31,30:12
31,31:12
32,2:14
32,6:14
32,7:46
32,9:14
32,11:14
32,17:46
32,18:46
32,23:102
32,24:102
32,25:102
32,28:12
32,29:12
32,30:12
32,31:12
32,32:12

<end>

<optimal SALBP-1 value>
10


<rand seed>
467321153

